p wcnf 127 254 255 
1 104 -78 0 
1 -119 -31 0 
1 -47 84 0 
1 -116 103 0 
1 -64 31 0 
1 -16 53 0 
1 41 87 0 
1 -68 -65 0 
1 125 35 0 
1 76 -17 0 
1 116 21 0 
1 29 81 0 
1 124 -95 0 
1 61 -59 0 
1 -8 10 0 
1 37 36 0 
1 123 52 0 
1 126 -10 0 
1 38 89 0 
1 -116 -56 0 
1 113 84 0 
1 -69 31 0 
1 -113 -107 0 
1 70 71 0 
1 -68 51 0 
1 45 53 0 
1 -71 -95 0 
1 -82 12 0 
1 62 116 0 
1 -47 20 0 
1 9 87 0 
1 57 -77 0 
1 89 -79 0 
1 16 -31 0 
1 123 -31 0 
1 70 -86 0 
1 -40 10 0 
1 -124 12 0 
1 -113 -32 0 
1 -1 -31 0 
1 -115 81 0 
1 41 115 0 
1 -111 -88 0 
1 -115 -76 0 
1 87 -104 0 
1 36 25 0 
1 -107 5 0 
1 102 65 0 
1 -78 -44 0 
1 96 70 0 
1 109 124 0 
1 -125 -13 0 
1 94 -52 0 
1 118 -51 0 
1 98 -51 0 
1 -61 -70 0 
1 13 81 0 
1 -106 -7 0 
1 -2 86 0 
1 122 110 0 
1 -23 -21 0 
1 -20 71 0 
1 -30 -123 0 
1 -83 -105 0 
1 -102 6 0 
1 98 122 0 
1 -28 6 0 
1 -118 -110 0 
1 4 67 0 
1 111 -116 0 
1 -124 35 0 
1 82 122 0 
1 13 23 0 
1 54 111 0 
1 115 -40 0 
1 9 -71 0 
1 -32 -53 0 
1 -89 55 0 
1 -67 -123 0 
1 -80 -43 0 
1 52 119 0 
1 -104 2 0 
1 69 97 0 
1 52 -64 0 
1 16 22 0 
1 113 122 0 
1 109 42 0 
1 -36 -87 0 
1 -85 -96 0 
1 63 -127 0 
1 -21 -115 0 
1 -88 93 0 
1 123 -34 0 
1 90 94 0 
1 90 -104 0 
1 -73 120 0 
1 -19 -14 0 
1 -10 52 0 
1 119 81 0 
1 -14 -126 0 
1 124 99 0 
1 95 -97 0 
1 113 102 0 
1 94 79 0 
1 53 13 0 
1 57 -13 0 
1 -38 -35 0 
1 61 19 0 
1 -91 -40 0 
1 -51 -115 0 
1 -116 -22 0 
1 5 -11 0 
1 -101 85 0 
1 58 -49 0 
1 -48 -41 0 
1 -126 101 0 
1 107 30 0 
1 64 -106 0 
1 56 120 0 
1 118 -50 0 
1 -71 86 0 
1 -16 -49 0 
1 11 -86 0 
1 -30 112 0 
1 -45 -64 0 
1 -28 -9 0 
1 83 -20 0 
1 -51 -70 0 
1 -49 34 0 
1 -94 44 0 
1 -87 -34 0 
1 -43 46 0 
1 -46 80 0 
1 -89 -117 0 
1 9 -5 0 
1 -92 72 0 
1 24 -110 0 
1 -83 19 0 
1 -91 57 0 
1 -115 -88 0 
1 -127 -24 0 
1 114 -105 0 
1 74 -16 0 
1 -126 -122 0 
1 -40 -121 0 
1 -111 -45 0 
1 105 35 0 
1 -34 68 0 
1 63 -111 0 
1 25 -82 0 
1 24 89 0 
1 -110 5 0 
1 -57 105 0 
1 -37 85 0 
1 104 -18 0 
1 -93 26 0 
1 107 -44 0 
1 -122 27 0 
1 20 78 0 
1 -73 -14 0 
1 35 -63 0 
1 102 9 0 
1 -64 16 0 
1 83 30 0 
1 -123 -55 0 
1 20 98 0 
1 -7 -71 0 
1 -43 -99 0 
1 24 -37 0 
1 116 -12 0 
1 27 -88 0 
1 5 -60 0 
1 -25 -87 0 
1 100 56 0 
1 86 -53 0 
1 82 69 0 
1 -106 115 0 
1 45 -121 0 
1 -13 106 0 
1 84 16 0 
1 91 -63 0 
1 85 45 0 
1 106 16 0 
1 -112 72 0 
1 -102 -40 0 
1 73 -14 0 
1 115 -27 0 
1 19 76 0 
1 -8 100 0 
1 -27 78 0 
1 98 68 0 
1 100 81 0 
1 -6 -86 0 
1 94 -19 0 
1 84 56 0 
1 -122 -14 0 
1 108 -95 0 
1 119 -7 0 
1 -111 -93 0 
1 -4 16 0 
1 33 -37 0 
1 44 -125 0 
1 -88 42 0 
1 23 -118 0 
1 49 118 0 
1 -23 65 0 
1 120 -27 0 
1 97 1 0 
1 65 -125 0 
1 -55 -12 0 
1 -74 -30 0 
1 101 -25 0 
1 39 -20 0 
1 -86 57 0 
1 80 -75 0 
1 -111 -106 0 
1 -76 97 0 
1 -121 -76 0 
1 87 110 0 
1 -102 -108 0 
1 -56 89 0 
1 67 10 0 
1 10 20 0 
1 96 -23 0 
1 -35 31 0 
1 60 93 0 
1 71 -86 0 
1 72 -90 0 
1 -23 -59 0 
1 -78 87 0 
1 20 73 0 
1 27 -114 0 
1 37 -98 0 
1 40 -51 0 
1 -42 18 0 
1 42 -72 0 
1 23 79 0 
1 7 68 0 
1 8 6 0 
1 25 -96 0 
1 121 -24 0 
1 62 10 0 
1 -6 -97 0 
1 -52 34 0 
1 -75 17 0 
1 74 35 0 
1 8 92 0 
1 44 -97 0 
1 23 -7 0 
1 84 39 0 
1 18 -109 0 
1 65 96 0 
1 -17 105 0 
1 112 -51 0 
